111010011011101111111101010110101000110101100101000101010001000001000111001010101110100000101010110100100101010010001011001110100001111110101011101101001111001010110001111000101010001010100010000110001010110001101111110110011111101101101010111010001010111101011011101111110000101110110010000110010000000100001100111001110011111000110000011011101100100100100110001110001110010011110111